(set-info :source |
 Generated by Alive 0.1
 More info in N. P. Lopes, D. Menendez, S. Nagarakatte, J. Regehr.
 Provably Correct Peephole Optimizations with Alive. In PLDI'15.
|)

(set-info :status unknown)
(declare-fun mem0 () (_ BitVec 8))
(declare-fun C () (_ BitVec 14))
(assert
 (let (($x927 (and (distinct mem0 mem0) true)))
 (let ((?x114499 (bvshl (_ bv1 14) (bvsub (_ bv14 14) (_ bv1 14)))))
 (let (($x376107 (bvuge C ?x114499)))
 (and $x376107 $x927)))))
(check-sat)
